p cnf 22 7
e 1 2 3 4 0
a 5 0
e 6 0
a 7 8 9 10 11 0
e 12 0
a 13 0
e 14 0
a 15 16 0
e 17 18 0
a 19 0
e 20 0
a 21 0
e 22 0
-8 -20 -21 0
-1 2 -18 15 6 0
-10 -8 -9 1 -12 0
6 -12 17 -20 0
21 -18 -8 15 0
-14 -16 -10 0
-12 6 -10 0
